p tw 42 98
0 1
0 6
0 8
0 5
0 3
0 7
0 9
1 4
1 5
1 9
1 7
1 8
1 3
2 3
2 15
2 16
2 17
2 18
3 9
3 7
3 5
3 8
4 24
4 25
4 26
4 27
5 9
5 8
5 7
5 23
6 34
6 35
6 36
6 37
7 8
7 9
7 28
8 9
8 10
9 31
10 11
10 12
10 13
10 14
11 12
11 13
11 14
12 13
12 14
13 14
15 16
15 17
15 18
16 17
16 18
17 18
19 20
19 21
19 22
19 23
20 21
20 22
20 23
21 22
21 23
22 23
24 25
24 26
24 27
25 26
25 27
26 27
28 38
28 39
28 40
28 41
29 30
29 31
29 32
29 33
30 31
30 32
30 33
31 32
31 33
32 33
34 35
34 36
34 37
35 36
35 37
36 37
38 39
38 40
38 41
39 40
39 41
40 41
